words_hard_train/5177.qaiger
aag 127 15 0 1 112
2
4
8
20
34
36
72
74
110
112
124
126
138
140
152
255
6 3 5
10 8 4
12 7 11
14 9 5
16 15 11
18 17 3
22 18 21
24 13 23
26 16 2
28 26 20
30 23 29
32 29 11
38 35 37
40 34 36
42 39 41
44 32 43
46 33 42
48 45 47
50 30 48
52 31 49
54 51 53
56 55 35
58 54 34
60 57 59
62 25 61
64 24 60
66 63 65
68 65 59
70 47 41
76 73 75
78 72 74
80 77 79
82 70 81
84 71 80
86 83 85
88 53 86
90 52 87
92 89 91
94 93 73
96 92 72
98 95 97
100 68 99
102 69 98
104 101 103
106 67 105
108 85 79
114 111 113
116 110 112
118 115 117
120 109 118
122 121 117
128 125 127
130 124 126
132 129 131
134 123 132
136 135 131
142 139 141
144 138 140
146 143 145
148 137 146
150 149 145
154 151 152
156 150 153
158 155 157
160 122 133
162 161 135
164 108 119
166 165 121
168 167 90
170 163 168
172 136 147
174 173 149
176 170 175
178 159 176
180 158 177
182 179 181
184 103 97
186 166 91
188 187 169
190 189 111
192 188 110
194 191 193
196 185 194
198 197 193
200 162 169
202 201 171
204 203 125
206 202 124
208 205 207
210 199 208
212 211 207
214 171 174
216 215 177
218 217 139
220 216 138
222 219 221
224 213 222
226 225 221
228 183 226
230 106 229
232 184 195
234 233 197
236 235 6
238 198 209
240 239 211
242 236 241
244 212 223
246 245 225
248 242 247
250 182 227
252 248 251
254 230 252
i0 1 x1[0]
i1 1 x1[1]
i2 2 y2[1]
i3 2 y2[0]
i4 2 y2[2]
i5 1 x1[2]
i6 2 y2[3]
i7 1 x1[3]
i8 2 y2[4]
i9 1 x1[4]
i10 2 y2[5]
i11 1 x1[5]
i12 2 y2[6]
i13 1 x1[6]
i14 1 x1[7]
o0 bv[0]
c
simplified
  >
    subtract
      2 y2
      add
        2 y2
        1 x1
    reverse
      1
