words_hard_train/5177.qaiger.qdimacs
p cnf 127 337
a 1 2 37 70 76 18 56 63 0
e 3 4 5 6 7 8 9 10 11 12 13 14 15 16 17 19 20 21 22 23 24 25 26 27 28 29 30 31 32 33 34 35 36 38 39 40 41 42 43 44 45 46 47 48 49 50 51 52 53 54 55 57 58 59 60 61 62 64 65 66 67 68 69 71 72 73 74 75 77 78 79 80 81 82 83 84 85 86 87 88 89 90 91 92 93 94 95 96 97 98 99 100 101 102 103 104 105 106 107 108 109 110 111 112 113 114 115 116 117 118 119 120 121 122 123 124 125 126 127 0
1 2 3 0
-1 -3 0
-2 -3 0
-4 -2 5 0
4 -5 0
2 -5 0
3 5 6 0
-3 -6 0
-5 -6 0
4 2 7 0
-4 -7 0
-2 -7 0
7 5 8 0
-7 -8 0
-5 -8 0
8 1 9 0
-8 -9 0
-1 -9 0
-9 10 11 0
9 -11 0
-10 -11 0
6 11 12 0
-6 -12 0
-11 -12 0
-8 -1 13 0
8 -13 0
1 -13 0
-13 -10 14 0
13 -14 0
10 -14 0
11 14 15 0
-11 -15 0
-14 -15 0
14 5 16 0
-14 -16 0
-5 -16 0
17 18 19 0
-17 -19 0
-18 -19 0
-17 -18 20 0
17 -20 0
18 -20 0
19 20 21 0
-19 -21 0
-20 -21 0
-16 21 22 0
16 -22 0
-21 -22 0
16 -21 23 0
-16 -23 0
21 -23 0
22 23 24 0
-22 -24 0
-23 -24 0
-15 -24 25 0
15 -25 0
24 -25 0
15 24 26 0
-15 -26 0
-24 -26 0
25 26 27 0
-25 -27 0
-26 -27 0
27 17 28 0
-27 -28 0
-17 -28 0
-27 -17 29 0
27 -29 0
17 -29 0
28 29 30 0
-28 -30 0
-29 -30 0
12 30 31 0
-12 -31 0
-30 -31 0
-12 -30 32 0
12 -32 0
30 -32 0
31 32 33 0
-31 -33 0
-32 -33 0
32 29 34 0
-32 -34 0
-29 -34 0
23 20 35 0
-23 -35 0
-20 -35 0
36 37 38 0
-36 -38 0
-37 -38 0
-36 -37 39 0
36 -39 0
37 -39 0
38 39 40 0
-38 -40 0
-39 -40 0
-35 40 41 0
35 -41 0
-40 -41 0
35 -40 42 0
-35 -42 0
40 -42 0
41 42 43 0
-41 -43 0
-42 -43 0
26 -43 44 0
-26 -44 0
43 -44 0
-26 43 45 0
26 -45 0
-43 -45 0
44 45 46 0
-44 -46 0
-45 -46 0
46 36 47 0
-46 -47 0
-36 -47 0
-46 -36 48 0
46 -48 0
36 -48 0
47 48 49 0
-47 -49 0
-48 -49 0
-34 49 50 0
34 -50 0
-49 -50 0
34 -49 51 0
-34 -51 0
49 -51 0
50 51 52 0
-50 -52 0
-51 -52 0
33 52 53 0
-33 -53 0
-52 -53 0
42 39 54 0
-42 -54 0
-39 -54 0
55 56 57 0
-55 -57 0
-56 -57 0
-55 -56 58 0
55 -58 0
56 -58 0
57 58 59 0
-57 -59 0
-58 -59 0
54 -59 60 0
-54 -60 0
59 -60 0
60 58 61 0
-60 -61 0
-58 -61 0
62 63 64 0
-62 -64 0
-63 -64 0
-62 -63 65 0
62 -65 0
63 -65 0
64 65 66 0
-64 -66 0
-65 -66 0
61 -66 67 0
-61 -67 0
66 -67 0
67 65 68 0
-67 -68 0
-65 -68 0
69 70 71 0
-69 -71 0
-70 -71 0
-69 -70 72 0
69 -72 0
70 -72 0
71 72 73 0
-71 -73 0
-72 -73 0
68 -73 74 0
-68 -74 0
73 -74 0
74 72 75 0
-74 -75 0
-72 -75 0
75 -76 77 0
-75 -77 0
76 -77 0
-75 76 78 0
75 -78 0
-76 -78 0
77 78 79 0
-77 -79 0
-78 -79 0
-61 66 80 0
61 -80 0
-66 -80 0
80 67 81 0
-80 -81 0
-67 -81 0
-54 59 82 0
54 -82 0
-59 -82 0
82 60 83 0
-82 -83 0
-60 -83 0
83 -45 84 0
-83 -84 0
45 -84 0
81 -84 85 0
-81 -85 0
84 -85 0
-68 73 86 0
68 -86 0
-73 -86 0
86 74 87 0
-86 -87 0
-74 -87 0
-85 87 88 0
85 -88 0
-87 -88 0
79 -88 89 0
-79 -89 0
88 -89 0
-79 88 90 0
79 -90 0
-88 -90 0
89 90 91 0
-89 -91 0
-90 -91 0
51 48 92 0
-51 -92 0
-48 -92 0
-83 45 93 0
83 -93 0
-45 -93 0
93 84 94 0
-93 -94 0
-84 -94 0
94 55 95 0
-94 -95 0
-55 -95 0
-94 -55 96 0
94 -96 0
55 -96 0
95 96 97 0
-95 -97 0
-96 -97 0
92 -97 98 0
-92 -98 0
97 -98 0
98 96 99 0
-98 -99 0
-96 -99 0
-81 84 100 0
81 -100 0
-84 -100 0
100 85 101 0
-100 -101 0
-85 -101 0
101 62 102 0
-101 -102 0
-62 -102 0
-101 -62 103 0
101 -103 0
62 -103 0
102 103 104 0
-102 -104 0
-103 -104 0
99 -104 105 0
-99 -105 0
104 -105 0
105 103 106 0
-105 -106 0
-103 -106 0
85 -87 107 0
-85 -107 0
87 -107 0
107 88 108 0
-107 -108 0
-88 -108 0
108 69 109 0
-108 -109 0
-69 -109 0
-108 -69 110 0
108 -110 0
69 -110 0
109 110 111 0
-109 -111 0
-110 -111 0
106 -111 112 0
-106 -112 0
111 -112 0
112 110 113 0
-112 -113 0
-110 -113 0
91 -113 114 0
-91 -114 0
113 -114 0
-53 114 115 0
53 -115 0
-114 -115 0
-92 97 116 0
92 -116 0
-97 -116 0
116 98 117 0
-116 -117 0
-98 -117 0
117 -3 118 0
-117 -118 0
3 -118 0
-99 104 119 0
99 -119 0
-104 -119 0
119 105 120 0
-119 -120 0
-105 -120 0
-118 120 121 0
118 -121 0
-120 -121 0
-106 111 122 0
106 -122 0
-111 -122 0
122 112 123 0
-122 -123 0
-112 -123 0
-121 123 124 0
121 -124 0
-123 -124 0
-91 113 125 0
91 -125 0
-113 -125 0
-124 125 126 0
124 -126 0
-125 -126 0
-115 -126 127 0
115 -127 0
126 -127 0
-127 0
